62
125
87	2
86	1
85	4
84	4
83	5
82	8
81	1
80	3
79	3
78	2
77	6
76	2
75	4
74	5
73	3
72	7
71	4
70	3
69	4
68	3
67	3
66	3
65	2
64	3
63	2
62	1
61	1
60	3
59	2
58	5
57	3
56	4
55	4
54	3
53	3
52	2
51	4
50	3
49	4
48	3
47	4
46	2
45	4
44	6
43	5
41	2
40	3
39	5
38	2
37	2
36	2
35	4
34	3
33	1
32	2
31	4
30	1
29	5
28	5
27	2
26	3
25	1
